32	0

0	2	2	4
7	2	3	5
5	2	6	7
10	2	5	7
3	1	6
10	1	8
9	1	8
10	1	9
3	1	10
1	1	11
4	1	12
5	2	13	15
2	2	14	16
8	1	17
7	2	16	17
8	2	18	19
5	2	18	19
4	2	20	21
4	2	20	21
1	2	22	23
3	2	22	24
10	2	25	26
9	2	24	26
9	2	25	28
4	2	27	30
8	2	27	28
8	1	29
8	2	29	30
6	1	31
9	1	31
1	1	32
0	0
